4 10 18 14 6 11 7 8 0 12 9 15 19 2 13 16 5 17 1 3  
4 10 18 14 6 11 7 8 0 15 9 12 19 2 13 16 5 17 1 3  
4 10 18 14 6 11 7 8 17 12 9 15 5 19 2 0 1 13 16 3  
4 10 18 15 5 14 11 0 8 12 7 6 9 19 2 17 1 13 16 3  
4 10 18 14 6 7 8 11 0 12 9 15 19 2 13 16 5 17 1 3  
4 10 18 14 6 11 8 17 12 9 15 0 19 3 13 16 5 7 2 1  
4 10 18 14 6 11 7 8 17 12 9 15 5 19 2 13 0 1 16 3  
4 10 18 15 5 14 11 0 8 12 7 6 9 19 2 17 1 13 16 3  
4 10 18 14 6 11 17 8 15 0 12 9 19 16 7 5 2 3 1 13  
4 10 18 15 14 6 11 7 5 0 12 9 19 8 2 17 1 13 16 3  
4 10 18 14 6 11 7 8 17 12 9 15 19 5 13 16 0 1 2 3  
4 10 18 14 6 11 7 8 17 12 9 15 5 19 2 13 16 0 1 3  
4 10 18 14 6 11 8 17 12 9 15 0 19 3 13 16 5 7 2 1  
4 10 6 15 18 0 8 14 11 7 12 9 19 5 2 1 17 13 16 3  
4 10 18 15 7 6 11 5 2 19 9 16 8 17 13 12 0 1 3 14  
4 10 18 14 6 11 17 8 15 0 12 9 19 5 2 1 7 13 3 16  
4 10 18 14 6 11 7 8 17 12 9 15 0 19 16 5 3 1 2 13  
4 10 18 14 6 11 17 8 15 0 12 9 13 19 16 5 7 2 3 1  
4 10 18 14 6 11 7 8 0 12 9 15 19 2 13 16 5 17 1 3  
4 10 18 14 6 7 11 8 17 12 9 15 19 5 2 13 16 3 0 1  
4 10 18 14 6 11 17 8 15 12 0 9 19 5 7 1 2 13 3 16  
4 10 18 14 6 11 17 8 15 7 12 9 19 5 0 1 2 13 3 16  
4 10 18 14 6 11 7 8 0 12 9 15 19 5 13 2 17 1 16 3  
4 10 18 14 6 11 7 8 17 12 0 15 9 19 16 5 3 1 2 13  
4 10 6 15 18 14 7 11 5 0 12 9 19 8 2 17 1 13 16 3  
4 10 18 14 6 7 11 8 17 12 9 15 19 5 13 0 1 2 16 3  
4 10 18 14 6 7 11 8 17 12 9 15 5 19 2 13 16 0 1 3  
4 10 18 14 6 11 15 7 8 17 12 9 19 5 2 0 1 13 16 3  
4 10 18 11 14 6 15 7 5 0 12 9 19 8 2 17 1 13 16 3  
4 10 6 11 9 15 8 0 14 12 5 18 7 2 13 17 1 19 16 3  
4 15 18 10 6 14 5 9 19 11 8 7 1 0 2 13 12 17 16 3  
6 10 4 11 18 15 7 9 19 12 2 8 5 0 1 17 13 16 3 14  
4 10 18 14 6 11 7 8 0 12 9 15 19 5 2 17 1 13 16 3  
4 10 18 14 6 11 7 8 17 12 9 15 19 5 1 0 13 2 16 3  
4 10 18 14 6 11 17 8 15 12 0 9 19 3 13 16 5 2 1 7  
4 10 18 14 6 7 11 8 17 12 9 15 19 5 13 0 1 2 16 3  
4 10 18 14 6 11 0 8 15 7 17 12 9 19 3 13 16 5 2 1  
4 10 18 14 6 11 7 8 15 0 17 12 9 13 3 19 16 5 2 1  
4 10 18 14 6 7 8 11 17 12 9 15 19 5 2 13 16 3 0 1  
4 10 18 14 6 11 0 8 15 17 12 9 19 16 7 5 2 3 1 13  
4 10 18 14 6 11 17 8 15 0 12 9 19 13 16 5 7 2 3 1  
4 10 18 11 14 6 15 7 5 9 19 0 12 8 2 17 1 13 16 3  
4 10 18 14 6 11 17 8 15 7 12 9 19 5 0 2 1 13 16 3  
4 10 18 14 6 11 17 8 15 12 0 9 19 5 7 2 1 13 16 3  
4 10 18 14 6 11 17 8 15 0 12 9 1 13 16 5 7 2 3 19  
4 10 6 11 18 15 7 9 19 5 0 8 12 2 17 1 13 16 3 14  
4 10 18 14 6 11 17 8 15 5 9 19 2 12 7 13 16 0 1 3  
4 10 18 14 6 11 17 8 15 0 12 9 19 5 3 1 7 2 16 13  
4 10 6 15 18 14 7 11 5 12 0 8 9 19 2 17 1 13 16 3  
4 10 18 14 6 15 0 8 11 17 12 9 13 16 7 5 2 3 1 19  
4 10 18 14 6 7 11 8 17 12 9 15 0 19 3 13 16 5 2 1  
4 10 18 14 6 11 0 8 15 17 12 9 19 2 13 16 5 7 3 1  
4 10 18 14 6 11 17 8 15 0 12 9 19 5 16 13 7 2 3 1  
4 10 18 15 14 6 11 7 5 0 12 9 19 8 2 17 1 13 16 3  
